50, 685
36, 31
14, 9
27, 22
30, 25
20, 15
30, 25
47, 42
8, 3
51, 46
44, 39
10, 5
25, 20
50, 45
15, 10
39, 34
36, 31
12, 7
53, 48
7, 2
53, 48
15, 10
14, 9
17, 12
29, 24
26, 21
32, 27
19, 14
53, 48
39, 34
7, 2
32, 27
32, 27
27, 22
30, 25
54, 49
52, 47
52, 47
33, 28
47, 42
33, 28
47, 42
28, 23
52, 47
52, 47
37, 32
33, 28
48, 43
13, 8
49, 44
11, 6
